submitit INFO (2023-04-30 13:43:31,651) - Starting with JobEnvironment(job_id=27523, hostname=cpunode3, local_rank=0(5), node=0(1), global_rank=0(5))
submitit INFO (2023-04-30 13:43:31,651) - Loading pickle: /h/30/pashootan/Matrix-Mult-CP/src/../logs/2x2x2_5_Apr30_13:43:30/27523_submitted.pkl
 ! --------------------------------------------------- CP Optimizer 22.1.1.0 --
 ! Satisfiability problem - 60 variables, 164 constraints
 ! TimeLimit            = 7200
 ! Workers              = 8
 ! LogPeriod            = 10000000
 ! RandomSeed           = 1929
 ! Initial process time : 0.02s (0.02s extraction + 0.00s propagation)
 !  . Log search space  : 95.1 (before), 95.1 (after)
 !  . Memory usage      : 502.6 kB (before), 502.6 kB (after)
 ! Using parallel search with 8 workers.
 ! ----------------------------------------------------------------------------
 !               Branches  Non-fixed    W       Branch decision
                   10000k          6    1   F    -1  = V4_1
                   10000k          6    8            -
                   10000k          7    6         1  = W1_2
                   10000k          7    4   F    -1  = W0_1
                   10000k          6    2   F    -1 != U0_1
                   10000k          7    5        -1  = U3_0
                   10000k          7    7   F     0  = U3_0
                   10000k          8    3   F    -1 != U2_0
                   20000k          8    1         1 != W0_1
                   20000k          6    8   F    -1 != W4_1
                   20000k          8    4   F    -1 != V0_0
                   20000k          6    2         1 != U4_3
                   20000k          8    7   F    -1  = U4_3
                   20000k          7    6   F     0  = W4_2
                   20000k          7    3        -1 != V3_0
                   20000k          8    5   F     0  = V4_2
                   30000k          7    1   F    -1 != U0_2
                   30000k          6    8         1 != W0_1
                   30000k         10    3   F    -1 != W0_3
                   30000k          6    6   F     0  = W2_3
 ! Time = 422.16s, Average fail depth = 19, Memory usage = 139.0 MB
 !               Branches  Non-fixed    W       Branch decision
                   30000k          7    2         0  = W4_1
                   30000k          7    5   F     0  = V3_2
                   30000k          8    7   F     0  = U1_3
                   30000k          8    4   F    -1  = V1_2
                   40000k          7    1   F    -1  = V1_1
                   40000k          6    8        -1 != V0_3
                   40000k          6    6   F    -1 != V2_1
                   40000k         10    3        -1 != V3_2
                   40000k          7    5   F     1  = U2_1
                   40000k          8    2   F     0  = U0_0
                   40000k          8    7   F    -1  = V2_2
                   40000k          8    4   F     1  = U1_1
                   50000k          6    8        -1  = V1_2
                   50000k          8    1   F     0 != V2_3
                   50000k          6    6        -1  = U4_3
                   50000k          8    7   F     0  = V1_1
                   50000k          8    5         1 != U3_1
                   50000k          8    3   F     1 != U0_2
                   50000k          7    2   F     1 != U2_0
                   50000k          8    4   F     0  = W1_2
 ! Time = 712.97s, Average fail depth = 19, Memory usage = 225.5 MB
 !               Branches  Non-fixed    W       Branch decision
                   60000k          7    8         1 != U2_3
                   60000k          8    1   F     1  = W1_1
                   60000k          6    6        -1 != U0_0
                   60000k          9    5         0 != U2_1
                   60000k          9    7   F    -1  = V1_1
                   60000k          7    2   F     1 != V3_3
                   60000k          7    4         1  = V4_3
                   60000k          8    3        -1  = W1_0
                   70000k          6    8         0  = U3_3
                   70000k          9    1         0 != V0_0
                   70000k          6    6   F     0  = U2_0
                   70000k          8    5   F     1  = V3_1
                   70000k          9    7         0  = V1_1
                   70000k          8    2        -1  = W3_1
                   70000k          7    4         0 != U1_3
                   70000k         10    3        -1 != U4_3
                   80000k          6    8        -1 != V2_0
                   80000k          8    1   F    -1 != W0_2
                   80000k          7    6         1 != W1_2
                   80000k          7    7        -1  = V1_1
 ! Time = 1136.52s, Average fail depth = 19, Memory usage = 350.5 MB
 !               Branches  Non-fixed    W       Branch decision
                   80000k          6    5         0  = W1_0
                   80000k          8    4   F     1  = V4_3
                   80000k         10    3        -1  = V4_1
                   80000k          9    2   F    -1 != U2_3
                   90000k          6    8         0 != V3_1
                   90000k          7    1   F    -1  = W4_1
                   90000k          8    6   F    -1  = U3_0
                   90000k          9    7         0  = W0_0
                   90000k          9    4   F     1 != U1_0
                   90000k          6    5   F    -1  = V2_2
                   90000k          9    2   F     0  = V3_0
                   90000k          9    3        -1 != U4_3
                     100M          7    8         0 != U1_2
                     100M          8    1   F     1 != U4_3
                     100M          8    6   F    -1  = V3_2
                     100M          9    4   F     0  = U1_2
                     100M          9    7   F    -1 != V0_3
                     100M          8    2        -1 != U3_3
                     100M         10    3   F     0 != V1_1
                     100M          6    5   F     0 != W0_1
 ! Time = 1432.67s, Average fail depth = 19, Memory usage = 433.0 MB
 !               Branches  Non-fixed    W       Branch decision
                     110M          6    8            -
                     110M          8    1   F     0  = U2_3
                     110M          7    6         0 != V0_1
                     110M          8    2         0 != V2_2
                     110M          8    7        -1  = U4_0
                     110M          7    4   F    -1  = W3_2
                     110M          9    3   F    -1 != U1_0
                     110M          6    5         1 != V2_3
                     120M          6    8         0  = U0_2
                     120M          8    1         1  = W1_3
                     120M          8    6   F     0  = U3_3
                     120M          7    2         0 != U3_2
                     120M          7    3         1 != U1_3
                     120M          8    4   F    -1  = W0_1
                     120M          8    7   F     0  = V2_1
                     120M          7    5   F     1 != U0_0
                     130M          5    8         0 != W2_1
                     130M          8    1   F    -1 != W4_2
                     130M          8    6   F    -1 != V3_2
                     130M          9    2   F    -1 != V3_3
 ! Time = 1858.16s, Average fail depth = 19, Memory usage = 554.2 MB
 !               Branches  Non-fixed    W       Branch decision
                     130M          9    7         1  = V4_2
                     130M          6    4         0  = U1_1
                     130M          8    3   F    -1  = V0_1
                     130M          6    5   F     0  = U4_3
                     140M          5    8            -
                     140M          8    6         1  = V3_2
                     140M          9    1   F     1  = W1_3
                     140M          9    2   F     0 != V4_3
                     140M          8    7   F     0 != V1_1
                     140M          6    4   F    -1  = V1_3
                     140M          8    3        -1 != V1_3
                     140M          6    5         0 != U0_2
                     150M          5    8         1  = V3_1
                     150M          7    6        -1  = U1_3
                     150M          8    1   F     0  = U0_2
                     150M          8    7   F     1  = W4_3
                     150M          8    2         0  = U1_3
                     150M          7    3        -1  = W2_3
                     150M          6    4         1  = U0_1
                     150M          7    5   F     0 != U3_3
 ! Time = 2160.02s, Average fail depth = 19, Memory usage = 639.2 MB
 !               Branches  Non-fixed    W       Branch decision
                     160M          5    8        -1 != V1_3
                     160M          8    6         0  = V0_2
                     160M          8    1        -1  = V1_1
                     160M          8    3   F     1  = W1_3
                     160M          7    2   F    -1  = V2_1
                     160M          6    4   F    -1  = W2_1
                     160M          6    5   F     1  = W0_0
                     160M         10    7   F     0 != V2_1
                     170M          5    8         0 != W4_1
                     170M          7    1   F    -1  = W4_2
                     170M          8    6   F    -1 != U1_3
                     170M         13    3        -1 != U0_0
                     170M          9    2         0 != U4_2
                     170M         11    7   F     1  = U1_1
                     170M          8    5        -1  = W0_1
                     170M          6    4         0 != W1_2
                     180M          5    8        -1 != U1_0
                     180M          9    1         0 != W3_1
                     180M          8    6        -1  = V0_2
                     180M          9    3   F    -1 != U1_3
 ! Time = 2574.41s, Average fail depth = 19, Memory usage = 756.3 MB
 !               Branches  Non-fixed    W       Branch decision
                     180M          8    2   F     0  = V2_1
                     180M          6    5        -1  = V0_3
                     180M          6    4   F     1  = V4_2
                     180M          8    7   F     0 != U4_3
                     190M          7    1   F     0 != U0_0
                     190M          5    8   F    -1  = V2_0
                     190M          8    6   F    -1 != W4_1
                     190M          9    3   F    -1 != V1_2
                     190M          9    2         0 != U0_0
                     190M          8    5         0 != U1_0
                     190M          6    4   F     1  = U3_1
                     190M          9    7   F    -1 != V3_2
                     200M         10    1         0 != W1_2
                     200M          5    8   F    -1  = U4_3
                     200M          8    6   F     1 != V2_1
                     200M          8    2         1  = W2_1
                     200M         11    3        -1  = U3_2
                     200M          7    5   F    -1 != U2_0
                     200M          6    4   F     0  = W4_2
                     200M         11    7        -1  = U1_1
 ! Time = 2895.49s, Average fail depth = 19, Memory usage = 848.1 MB
 !               Branches  Non-fixed    W       Branch decision
                     210M          7    1        -1 != W4_2
                     210M          5    8         1 != V2_2
                     210M          8    6        -1  = U1_3
                     210M          9    3        -1 != U2_0
                     210M          9    2         0 != U0_2
                     210M          7    5        -1 != V1_0
                     210M          6    4   F    -1  = V3_3
                     210M          8    7         0  = W1_2
                     220M          8    1   F     0 != V4_3
                     220M          5    8   F     1  = W2_1
                     220M          9    6         1  = W2_2
                     220M          8    3   F     0  = V1_3
                     220M          8    2   F     0  = U3_2
                     220M          8    5         1 != W1_0
                     220M          8    7   F     1  = U1_2
                     220M          6    4   F     1 != W0_2
                     230M          8    1         0  = V2_2
                     230M          5    8            -
                     230M          9    6   F     1  = V0_1
                     230M          8    5         0  = W1_1
 ! Time = 3313.02s, Average fail depth = 19, Memory usage = 968.4 MB
 !               Branches  Non-fixed    W       Branch decision
                     230M          7    2        -1 != W0_3
                     230M          6    4   F    -1  = W1_2
                     230M         10    3   F     0  = V0_1
                     230M          9    7   F     1 != W0_3
                     240M          8    1         1  = U2_2
                     240M          5    8            -
                     240M          8    6         1 != W0_2
                     240M          6    2   F     0  = W2_3
                     240M          9    5   F    -1 != V1_0
                     240M         12    7   F     0  = V4_2
                     240M          6    4   F    -1 != U1_0
                     240M          8    3        -1  = W4_2
                     250M          8    1   F     1  = V4_2
                     250M          5    8   F    -1 != U4_0
                     250M          8    6   F    -1 != W1_2
                     250M          6    2   F    -1 != V0_1
                     250M          8    5         1 != U2_0
                     250M         11    7        -1 != U2_1
                     250M         12    3         1 != V1_1
                     250M          6    4   F     0  = U4_3
 ! Time = 3619.24s, Average fail depth = 19, Memory usage = 1.1 GB
 !               Branches  Non-fixed    W       Branch decision
                     260M          8    1         1 != W4_2
                     260M          5    8   F     0 != V1_0
                     260M          8    6        -1 != V0_2
                     260M          6    2   F    -1 != V3_1
                     260M          8    5         1 != V0_0
                     260M          8    7   F    -1 != U1_1
                     260M          6    4   F     0  = W0_1
                     260M          9    3         1 != V4_2
                     270M          8    1   F     0  = V4_1
                     270M          5    8         1  = V4_1
                     270M          8    6        -1 != V2_1
                     270M          8    2        -1 != U1_3
                     270M          8    5   F    -1 != W0_0
                     270M          6    4        -1  = W4_1
                     270M         12    7   F    -1 != U2_3
                     270M          8    3         1  = V3_2
                     280M          8    1         0  = W1_1
                     280M          5    8        -1  = U3_1
                     280M          8    6   F     0  = V3_3
                     280M          7    2        -1  = W0_1
 ! Time = 4033.95s, Average fail depth = 19, Memory usage = 1.2 GB
 !               Branches  Non-fixed    W       Branch decision
                     280M          9    5   F     0 != U2_0
                     280M          6    4   F    -1 != U3_1
                     280M          9    7         0 != U0_0
                     280M          7    3        -1  = U1_3
                     290M          8    1         1 != V3_3
                     290M          5    8   F    -1 != U3_0
                     290M          8    6   F     0 != U2_0
                     290M          7    2   F     0  = V4_1
                     290M          7    5   F     1  = W3_0
                     290M          6    4         0  = W3_3
                     290M         10    7   F    -1 != W2_1
                     290M          8    3   F     1  = W4_2
                     300M          7    1   F     0  = U4_0
                     300M          5    8         0  = U1_2
                     300M          8    2         1  = W3_3
                     300M          8    6   F     0  = W4_1
                     300M          9    5   F    -1  = W4_2
                     300M          7    4        -1 != U1_3
                     300M          7    7   F     1 != V4_2
                     300M          8    3   F     0 != U2_0
 ! Time = 4370.79s, Average fail depth = 19, Memory usage = 1.3 GB
 !               Branches  Non-fixed    W       Branch decision
                     310M          9    1        -1  = V2_1
                     310M          5    8            -
                     310M          8    6         1  = V2_3
                     310M          8    2         0 != V3_0
                     310M          7    4   F     0  = V0_1
                     310M          9    5   F    -1  = U1_2
                     310M         10    7   F    -1  = V1_2
                     310M          7    3         0  = V2_1
                     320M          8    1        -1 != U4_2
                     320M          5    8         0  = W0_2
                     320M          8    2         0  = U3_2
                     320M          8    6   F    -1 != W1_3
                     320M          6    4         1  = V3_1
                     320M          9    5         1  = V1_3
                     320M          9    7        -1 != U1_3
                     320M          7    3         0  = W3_3
                     330M          8    1   F     0 != V2_1
                     330M          5    8        -1 != V4_0
                     330M          8    2        -1 != V1_3
                     330M          8    6         1  = U0_1
 ! Time = 4762.18s, Average fail depth = 19, Memory usage = 1.4 GB
 !               Branches  Non-fixed    W       Branch decision
                     330M         10    7         1 != U2_2
                     330M          7    4         0 != V3_1
                     330M          8    5         1 != U1_2
                     330M          8    3   F     0  = U1_3
                     340M          8    1         0 != W0_2
                     340M          5    8        -1  = W2_0
                     340M          8    2   F     0  = U2_2
                     340M          8    6        -1 != W4_3
                     340M          8    4        -1 != V0_3
                     340M          7    5         0 != V2_1
                     340M         10    7   F     0  = V0_2
                     340M          8    3         1  = U1_3
                     350M          5    8   F     0  = W3_3
                     350M          7    1   F     1 != U1_2
                     350M          9    2         0 != W1_2
                     350M          7    6   F     1 != V2_1
                     350M          8    5         1 != U0_2
                     350M          8    4   F     1 != V0_1
                     350M          8    7         0 != W1_1
                     350M          8    3   F    -1 != U0_2
 ! Time = 5107.82s, Average fail depth = 19, Memory usage = 1.5 GB
 !               Branches  Non-fixed    W       Branch decision
                     360M          8    1   F     1 != W1_3
                     360M          5    8   F        -
                     360M          8    2   F    -1  = V4_0
                     360M          9    6   F     1 != W3_3
                     360M          8    5         0  = U0_2
                     360M          7    4   F    -1 != U1_1
                     360M          8    7        -1  = W0_3
                     360M          7    3   F     0  = V4_2
                     370M          6    1   F     0  = W2_3
                     370M          5    8        -1  = V2_0
                     370M          9    2        -1  = W2_1
                     370M          8    6   F     1 != V1_3
                     370M          7    4         1  = U2_1
                     370M          8    5         0 != W2_2
                     370M          9    7         1 != U2_0
                     370M          7    3   F     1  = U1_3
                     380M          6    1         1 != U4_3
                     380M          5    8   F     0  = W1_2
                     380M          7    2   F     1  = U0_2
                     380M          8    6   F     0  = U2_0
 ! Time = 5484.67s, Average fail depth = 19, Memory usage = 1.6 GB
 !               Branches  Non-fixed    W       Branch decision
                     380M          8    4   F    -1 != U4_1
                     380M          7    7   F    -1 != U1_3
                     380M          9    5   F     1 != V2_1
                     380M          7    3   F    -1  = V0_2
                     390M          6    1         0  = V3_0
                     390M          5    8         0  = U4_2
                     390M          7    2        -1 != W2_1
                     390M          7    6         0 != V2_1
                     390M          8    4   F    -1  = V3_2
                     390M         10    7         1 != U2_0
                     390M          7    5        -1 != U3_0
                     390M         12    3   F     1 != W4_0
                     400M          6    1         0  = U1_3
                     400M          5    8         0 != V4_3
                     400M         10    2   F     1 != U1_1
                     400M          8    6   F     0  = U0_1
                     400M          7    4        -1  = U3_0
                     400M          8    7   F     0 != U3_3
                     400M          9    5         1  = U1_3
                     400M          8    3         1 != U1_3
 ! Time = 5834.43s, Average fail depth = 19, Memory usage = 1.7 GB
 !               Branches  Non-fixed    W       Branch decision
                     410M          6    1   F     0  = V1_0
                     410M          5    8        -1  = U2_0
                     410M          7    2         0 != W1_3
                     410M          8    6   F    -1  = V2_2
                     410M          7    4   F     1 != W1_1
                     410M          8    5        -1 != U0_3
                     410M          7    7        -1  = W1_0
                     410M          9    3   F     0  = W3_2
                     420M          6    1        -1 != U3_2
                     420M          5    8         1 != W2_2
                     420M          9    2        -1  = W0_1
                     420M          6    4         1 != W2_1
                     420M          7    6        -1 != W2_3
                     420M          7    7   F     1 != U0_0
                     420M          9    5        -1  = W1_0
                     420M          7    3   F     1 != W0_2
                     430M          7    1   F    -1  = V0_1
                     430M          5    8         1 != V3_2
                     430M          9    2        -1 != V1_1
                     430M          8    4   F     0  = U0_0
 ! Time = 6204.77s, Average fail depth = 19, Memory usage = 1.8 GB
 !               Branches  Non-fixed    W       Branch decision
                     430M          9    6   F     1  = U2_1
                     430M          8    7        -1  = U0_0
                     430M          8    5   F    -1 != V0_3
                     430M          7    3   F     0 != U2_0
                     440M          6    1   F    -1  = V2_1
                     440M          5    8        -1  = U0_1
                     440M          7    2   F     1  = U3_2
                     440M          8    4        -1 != U4_0
                     440M          7    6         0 != W2_3
                     440M         11    7   F     1 != V0_3
                     440M          9    3   F     1 != U2_1
                     440M          9    5         0 != V3_3
                     450M          6    1        -1 != U4_2
                     450M          5    8   F     0  = V3_0
                     450M          7    4   F     0 != V3_3
                     450M         10    2   F    -1 != V2_0
                     450M          8    6   F    -1 != W0_1
                     450M         10    7         1 != U1_1
                     450M          8    5   F     1  = W1_2
                     450M          9    3         0 != W2_3
 ! Time = 6556.61s, Average fail depth = 19, Memory usage = 1.9 GB
 !               Branches  Non-fixed    W       Branch decision
                     460M          6    1         1  = V1_0
                     460M          5    8        -1  = U2_2
                     460M          8    2        -1 != U3_1
                     460M          7    4         0  = V4_1
                     460M          8    6   F     1  = W1_3
                     460M          7    5   F     1  = V0_0
                     460M          7    7         0  = U2_0
                     460M         11    3         0  = U2_0
                     470M          7    1        -1  = U2_0
                     470M          5    8         1  = V0_2
                     470M          9    2         0 != U3_2
                     470M          8    4         0 != W2_3
                     470M          8    6   F     1  = W0_1
                     470M          9    5   F     0  = V0_1
                     470M          8    7        -1 != V1_2
                     470M          7    3         0  = W2_3
                     480M          6    1        -1  = U2_3
                     480M          5    8            -
                     480M          9    2         1 != V4_1
                     480M          8    4         1  = V3_1
 ! Time = 6939.08s, Average fail depth = 19, Memory usage = 2.0 GB
 !               Branches  Non-fixed    W       Branch decision
                     480M          9    6   F     0  = W2_1
                     480M          7    5         1 != V3_3
                     480M          7    7   F    -1 != U2_0
                     480M          8    3   F    -1 != V1_1
                     490M          5    8         1  = W1_0
                     490M          6    1   F     1  = U1_2
                     490M          9    2   F    -1 != V3_1
                     490M          7    4         1 != W1_3
                     490M          8    6        -1 != V3_3
                     490M          6    5        -1  = V1_2
                     490M          9    7   F    -1 != U0_3
submitit INFO (2023-04-30 15:42:42,303) - Job has timed out. Ran 119 minutes out of requested 121 minutes.
submitit WARNING (2023-04-30 15:42:42,303) - Bypassing signal SIGCONT
submitit WARNING (2023-04-30 15:42:42,304) - Caught signal SIGUSR2 on cpunode3: this job is timed-out.
submitit INFO (2023-04-30 15:42:42,304) - Job not requeued because: timed-out and not checkpointable.
submitit ERROR (2023-04-30 15:42:42,324) - Submitted job triggered an exception
